p tw 180 193
1 2
2 93
3 14
4 5
5 6
6 7
7 8
8 9
9 10
9 20
10 11
11 12
12 13
13 15
14 25
15 16
16 17
17 18
18 19
19 20
20 21
21 22
22 23
23 24
24 26
25 36
26 27
27 28
28 29
29 30
30 31
30 41
31 32
32 33
33 34
34 35
35 37
36 47
37 38
38 39
39 40
40 41
41 42
42 43
43 44
44 45
45 46
46 48
47 58
48 49
49 50
50 51
51 52
52 53
53 54
54 55
55 56
56 57
57 59
58 69
59 60
60 61
60 75
61 62
62 63
63 64
64 65
65 66
65 75
66 67
67 68
68 70
69 80
70 71
71 72
72 73
73 74
74 63
75 76
76 77
77 78
78 79
79 81
80 91
81 82
81 86
82 83
83 84
84 85
85 75
86 87
87 88
88 89
89 90
91 92
92 94
93 104
94 95
95 96
96 97
97 98
97 103
98 99
99 100
99 103
100 101
101 102
101 103
102 103
103 105
104 115
104 36
105 106
106 107
107 108
108 109
108 111
109 110
110 113
111 112
112 113
113 114
114 116
115 126
116 117
117 118
117 120
118 119
119 120
120 121
121 122
122 123
123 124
124 125
125 127
126 137
127 128
128 129
129 130
130 131
131 132
132 133
133 134
134 135
134 145
135 136
136 138
137 148
138 139
139 140
140 141
141 142
142 143
143 144
144 145
145 146
146 147
146 160
147 149
148 159
149 150
150 151
151 152
152 153
153 154
154 155
155 156
156 157
157 158
158 160
159 170
160 161
161 162
162 163
163 164
164 165
165 166
165 169
166 167
167 168
168 169
169 171
170 3
171 172
172 173
173 174
174 175
175 176
176 177
177 178
178 179
179 180
180 4
